c File: flat175_3_0.col
c
c SOURCE: Joseph Culberson (joe@cs.ualberta.ca)
c DESCRIPTION: Quasi-random coloring problem
c              generated with flatness = 0
c                             probability = 0.041
c                             known coloring = 3
c                             random seed = 1072
c              Creation Date:  Wed Feb 24 10:55:25 1999
c Maximum degree = 8 Minimum degree = 0
c COLOR VERIFICATION: Using the permuted order
c under simple greedy yields the specified
c coloring number
c Color = 3 specified partitions = 3
c p edge 175 417
c cnf created by edge2cnf
p cnf 525 1951
-1 -2 0
-1 -3 0
-2 -3 0
1 2 3 0
-4 -5 0
-4 -6 0
-5 -6 0
4 5 6 0
-7 -8 0
-7 -9 0
-8 -9 0
7 8 9 0
-10 -11 0
-10 -12 0
-11 -12 0
10 11 12 0
-13 -14 0
-13 -15 0
-14 -15 0
13 14 15 0
-16 -17 0
-16 -18 0
-17 -18 0
16 17 18 0
-19 -20 0
-19 -21 0
-20 -21 0
19 20 21 0
-22 -23 0
-22 -24 0
-23 -24 0
22 23 24 0
-25 -26 0
-25 -27 0
-26 -27 0
25 26 27 0
-28 -29 0
-28 -30 0
-29 -30 0
28 29 30 0
-31 -32 0
-31 -33 0
-32 -33 0
31 32 33 0
-34 -35 0
-34 -36 0
-35 -36 0
34 35 36 0
-37 -38 0
-37 -39 0
-38 -39 0
37 38 39 0
-40 -41 0
-40 -42 0
-41 -42 0
40 41 42 0
-43 -44 0
-43 -45 0
-44 -45 0
43 44 45 0
-46 -47 0
-46 -48 0
-47 -48 0
46 47 48 0
-49 -50 0
-49 -51 0
-50 -51 0
49 50 51 0
-52 -53 0
-52 -54 0
-53 -54 0
52 53 54 0
-55 -56 0
-55 -57 0
-56 -57 0
55 56 57 0
-58 -59 0
-58 -60 0
-59 -60 0
58 59 60 0
-61 -62 0
-61 -63 0
-62 -63 0
61 62 63 0
-64 -65 0
-64 -66 0
-65 -66 0
64 65 66 0
-67 -68 0
-67 -69 0
-68 -69 0
67 68 69 0
-70 -71 0
-70 -72 0
-71 -72 0
70 71 72 0
-73 -74 0
-73 -75 0
-74 -75 0
73 74 75 0
-76 -77 0
-76 -78 0
-77 -78 0
76 77 78 0
-79 -80 0
-79 -81 0
-80 -81 0
79 80 81 0
-82 -83 0
-82 -84 0
-83 -84 0
82 83 84 0
-85 -86 0
-85 -87 0
-86 -87 0
85 86 87 0
-88 -89 0
-88 -90 0
-89 -90 0
88 89 90 0
-91 -92 0
-91 -93 0
-92 -93 0
91 92 93 0
-94 -95 0
-94 -96 0
-95 -96 0
94 95 96 0
-97 -98 0
-97 -99 0
-98 -99 0
97 98 99 0
-100 -101 0
-100 -102 0
-101 -102 0
100 101 102 0
-103 -104 0
-103 -105 0
-104 -105 0
103 104 105 0
-106 -107 0
-106 -108 0
-107 -108 0
106 107 108 0
-109 -110 0
-109 -111 0
-110 -111 0
109 110 111 0
-112 -113 0
-112 -114 0
-113 -114 0
112 113 114 0
-115 -116 0
-115 -117 0
-116 -117 0
115 116 117 0
-118 -119 0
-118 -120 0
-119 -120 0
118 119 120 0
-121 -122 0
-121 -123 0
-122 -123 0
121 122 123 0
-124 -125 0
-124 -126 0
-125 -126 0
124 125 126 0
-127 -128 0
-127 -129 0
-128 -129 0
127 128 129 0
-130 -131 0
-130 -132 0
-131 -132 0
130 131 132 0
-133 -134 0
-133 -135 0
-134 -135 0
133 134 135 0
-136 -137 0
-136 -138 0
-137 -138 0
136 137 138 0
-139 -140 0
-139 -141 0
-140 -141 0
139 140 141 0
-142 -143 0
-142 -144 0
-143 -144 0
142 143 144 0
-145 -146 0
-145 -147 0
-146 -147 0
145 146 147 0
-148 -149 0
-148 -150 0
-149 -150 0
148 149 150 0
-151 -152 0
-151 -153 0
-152 -153 0
151 152 153 0
-154 -155 0
-154 -156 0
-155 -156 0
154 155 156 0
-157 -158 0
-157 -159 0
-158 -159 0
157 158 159 0
-160 -161 0
-160 -162 0
-161 -162 0
160 161 162 0
-163 -164 0
-163 -165 0
-164 -165 0
163 164 165 0
-166 -167 0
-166 -168 0
-167 -168 0
166 167 168 0
-169 -170 0
-169 -171 0
-170 -171 0
169 170 171 0
-172 -173 0
-172 -174 0
-173 -174 0
172 173 174 0
-175 -176 0
-175 -177 0
-176 -177 0
175 176 177 0
-178 -179 0
-178 -180 0
-179 -180 0
178 179 180 0
-181 -182 0
-181 -183 0
-182 -183 0
181 182 183 0
-184 -185 0
-184 -186 0
-185 -186 0
184 185 186 0
-187 -188 0
-187 -189 0
-188 -189 0
187 188 189 0
-190 -191 0
-190 -192 0
-191 -192 0
190 191 192 0
-193 -194 0
-193 -195 0
-194 -195 0
193 194 195 0
-196 -197 0
-196 -198 0
-197 -198 0
196 197 198 0
-199 -200 0
-199 -201 0
-200 -201 0
199 200 201 0
-202 -203 0
-202 -204 0
-203 -204 0
202 203 204 0
-205 -206 0
-205 -207 0
-206 -207 0
205 206 207 0
-208 -209 0
-208 -210 0
-209 -210 0
208 209 210 0
-211 -212 0
-211 -213 0
-212 -213 0
211 212 213 0
-214 -215 0
-214 -216 0
-215 -216 0
214 215 216 0
-217 -218 0
-217 -219 0
-218 -219 0
217 218 219 0
-220 -221 0
-220 -222 0
-221 -222 0
220 221 222 0
-223 -224 0
-223 -225 0
-224 -225 0
223 224 225 0
-226 -227 0
-226 -228 0
-227 -228 0
226 227 228 0
-229 -230 0
-229 -231 0
-230 -231 0
229 230 231 0
-232 -233 0
-232 -234 0
-233 -234 0
232 233 234 0
-235 -236 0
-235 -237 0
-236 -237 0
235 236 237 0
-238 -239 0
-238 -240 0
-239 -240 0
238 239 240 0
-241 -242 0
-241 -243 0
-242 -243 0
241 242 243 0
-244 -245 0
-244 -246 0
-245 -246 0
244 245 246 0
-247 -248 0
-247 -249 0
-248 -249 0
247 248 249 0
-250 -251 0
-250 -252 0
-251 -252 0
250 251 252 0
-253 -254 0
-253 -255 0
-254 -255 0
253 254 255 0
-256 -257 0
-256 -258 0
-257 -258 0
256 257 258 0
-259 -260 0
-259 -261 0
-260 -261 0
259 260 261 0
-262 -263 0
-262 -264 0
-263 -264 0
262 263 264 0
-265 -266 0
-265 -267 0
-266 -267 0
265 266 267 0
-268 -269 0
-268 -270 0
-269 -270 0
268 269 270 0
-271 -272 0
-271 -273 0
-272 -273 0
271 272 273 0
-274 -275 0
-274 -276 0
-275 -276 0
274 275 276 0
-277 -278 0
-277 -279 0
-278 -279 0
277 278 279 0
-280 -281 0
-280 -282 0
-281 -282 0
280 281 282 0
-283 -284 0
-283 -285 0
-284 -285 0
283 284 285 0
-286 -287 0
-286 -288 0
-287 -288 0
286 287 288 0
-289 -290 0
-289 -291 0
-290 -291 0
289 290 291 0
-292 -293 0
-292 -294 0
-293 -294 0
292 293 294 0
-295 -296 0
-295 -297 0
-296 -297 0
295 296 297 0
-298 -299 0
-298 -300 0
-299 -300 0
298 299 300 0
-301 -302 0
-301 -303 0
-302 -303 0
301 302 303 0
-304 -305 0
-304 -306 0
-305 -306 0
304 305 306 0
-307 -308 0
-307 -309 0
-308 -309 0
307 308 309 0
-310 -311 0
-310 -312 0
-311 -312 0
310 311 312 0
-313 -314 0
-313 -315 0
-314 -315 0
313 314 315 0
-316 -317 0
-316 -318 0
-317 -318 0
316 317 318 0
-319 -320 0
-319 -321 0
-320 -321 0
319 320 321 0
-322 -323 0
-322 -324 0
-323 -324 0
322 323 324 0
-325 -326 0
-325 -327 0
-326 -327 0
325 326 327 0
-328 -329 0
-328 -330 0
-329 -330 0
328 329 330 0
-331 -332 0
-331 -333 0
-332 -333 0
331 332 333 0
-334 -335 0
-334 -336 0
-335 -336 0
334 335 336 0
-337 -338 0
-337 -339 0
-338 -339 0
337 338 339 0
-340 -341 0
-340 -342 0
-341 -342 0
340 341 342 0
-343 -344 0
-343 -345 0
-344 -345 0
343 344 345 0
-346 -347 0
-346 -348 0
-347 -348 0
346 347 348 0
-349 -350 0
-349 -351 0
-350 -351 0
349 350 351 0
-352 -353 0
-352 -354 0
-353 -354 0
352 353 354 0
-355 -356 0
-355 -357 0
-356 -357 0
355 356 357 0
-358 -359 0
-358 -360 0
-359 -360 0
358 359 360 0
-361 -362 0
-361 -363 0
-362 -363 0
361 362 363 0
-364 -365 0
-364 -366 0
-365 -366 0
364 365 366 0
-367 -368 0
-367 -369 0
-368 -369 0
367 368 369 0
-370 -371 0
-370 -372 0
-371 -372 0
370 371 372 0
-373 -374 0
-373 -375 0
-374 -375 0
373 374 375 0
-376 -377 0
-376 -378 0
-377 -378 0
376 377 378 0
-379 -380 0
-379 -381 0
-380 -381 0
379 380 381 0
-382 -383 0
-382 -384 0
-383 -384 0
382 383 384 0
-385 -386 0
-385 -387 0
-386 -387 0
385 386 387 0
-388 -389 0
-388 -390 0
-389 -390 0
388 389 390 0
-391 -392 0
-391 -393 0
-392 -393 0
391 392 393 0
-394 -395 0
-394 -396 0
-395 -396 0
394 395 396 0
-397 -398 0
-397 -399 0
-398 -399 0
397 398 399 0
-400 -401 0
-400 -402 0
-401 -402 0
400 401 402 0
-403 -404 0
-403 -405 0
-404 -405 0
403 404 405 0
-406 -407 0
-406 -408 0
-407 -408 0
406 407 408 0
-409 -410 0
-409 -411 0
-410 -411 0
409 410 411 0
-412 -413 0
-412 -414 0
-413 -414 0
412 413 414 0
-415 -416 0
-415 -417 0
-416 -417 0
415 416 417 0
-418 -419 0
-418 -420 0
-419 -420 0
418 419 420 0
-421 -422 0
-421 -423 0
-422 -423 0
421 422 423 0
-424 -425 0
-424 -426 0
-425 -426 0
424 425 426 0
-427 -428 0
-427 -429 0
-428 -429 0
427 428 429 0
-430 -431 0
-430 -432 0
-431 -432 0
430 431 432 0
-433 -434 0
-433 -435 0
-434 -435 0
433 434 435 0
-436 -437 0
-436 -438 0
-437 -438 0
436 437 438 0
-439 -440 0
-439 -441 0
-440 -441 0
439 440 441 0
-442 -443 0
-442 -444 0
-443 -444 0
442 443 444 0
-445 -446 0
-445 -447 0
-446 -447 0
445 446 447 0
-448 -449 0
-448 -450 0
-449 -450 0
448 449 450 0
-451 -452 0
-451 -453 0
-452 -453 0
451 452 453 0
-454 -455 0
-454 -456 0
-455 -456 0
454 455 456 0
-457 -458 0
-457 -459 0
-458 -459 0
457 458 459 0
-460 -461 0
-460 -462 0
-461 -462 0
460 461 462 0
-463 -464 0
-463 -465 0
-464 -465 0
463 464 465 0
-466 -467 0
-466 -468 0
-467 -468 0
466 467 468 0
-469 -470 0
-469 -471 0
-470 -471 0
469 470 471 0
-472 -473 0
-472 -474 0
-473 -474 0
472 473 474 0
-475 -476 0
-475 -477 0
-476 -477 0
475 476 477 0
-478 -479 0
-478 -480 0
-479 -480 0
478 479 480 0
-481 -482 0
-481 -483 0
-482 -483 0
481 482 483 0
-484 -485 0
-484 -486 0
-485 -486 0
484 485 486 0
-487 -488 0
-487 -489 0
-488 -489 0
487 488 489 0
-490 -491 0
-490 -492 0
-491 -492 0
490 491 492 0
-493 -494 0
-493 -495 0
-494 -495 0
493 494 495 0
-496 -497 0
-496 -498 0
-497 -498 0
496 497 498 0
-499 -500 0
-499 -501 0
-500 -501 0
499 500 501 0
-502 -503 0
-502 -504 0
-503 -504 0
502 503 504 0
-505 -506 0
-505 -507 0
-506 -507 0
505 506 507 0
-508 -509 0
-508 -510 0
-509 -510 0
508 509 510 0
-511 -512 0
-511 -513 0
-512 -513 0
511 512 513 0
-514 -515 0
-514 -516 0
-515 -516 0
514 515 516 0
-517 -518 0
-517 -519 0
-518 -519 0
517 518 519 0
-520 -521 0
-520 -522 0
-521 -522 0
520 521 522 0
-523 -524 0
-523 -525 0
-524 -525 0
523 524 525 0
-94 -1 0
-95 -2 0
-96 -3 0
-160 -1 0
-161 -2 0
-162 -3 0
-256 -1 0
-257 -2 0
-258 -3 0
-292 -1 0
-293 -2 0
-294 -3 0
-391 -1 0
-392 -2 0
-393 -3 0
-523 -1 0
-524 -2 0
-525 -3 0
-193 -4 0
-194 -5 0
-195 -6 0
-259 -4 0
-260 -5 0
-261 -6 0
-268 -4 0
-269 -5 0
-270 -6 0
-289 -4 0
-290 -5 0
-291 -6 0
-436 -4 0
-437 -5 0
-438 -6 0
-22 -7 0
-23 -8 0
-24 -9 0
-91 -7 0
-92 -8 0
-93 -9 0
-412 -7 0
-413 -8 0
-414 -9 0
-457 -7 0
-458 -8 0
-459 -9 0
-376 -10 0
-377 -11 0
-378 -12 0
-430 -10 0
-431 -11 0
-432 -12 0
-496 -10 0
-497 -11 0
-498 -12 0
-364 -13 0
-365 -14 0
-366 -15 0
-460 -13 0
-461 -14 0
-462 -15 0
-463 -13 0
-464 -14 0
-465 -15 0
-106 -16 0
-107 -17 0
-108 -18 0
-148 -16 0
-149 -17 0
-150 -18 0
-193 -16 0
-194 -17 0
-195 -18 0
-244 -16 0
-245 -17 0
-246 -18 0
-421 -16 0
-422 -17 0
-423 -18 0
-67 -19 0
-68 -20 0
-69 -21 0
-94 -19 0
-95 -20 0
-96 -21 0
-112 -19 0
-113 -20 0
-114 -21 0
-208 -19 0
-209 -20 0
-210 -21 0
-235 -19 0
-236 -20 0
-237 -21 0
-265 -19 0
-266 -20 0
-267 -21 0
-154 -22 0
-155 -23 0
-156 -24 0
-187 -22 0
-188 -23 0
-189 -24 0
-349 -22 0
-350 -23 0
-351 -24 0
-121 -25 0
-122 -26 0
-123 -27 0
-136 -25 0
-137 -26 0
-138 -27 0
-178 -25 0
-179 -26 0
-180 -27 0
-241 -25 0
-242 -26 0
-243 -27 0
-259 -25 0
-260 -26 0
-261 -27 0
-286 -25 0
-287 -26 0
-288 -27 0
-424 -25 0
-425 -26 0
-426 -27 0
-508 -25 0
-509 -26 0
-510 -27 0
-142 -28 0
-143 -29 0
-144 -30 0
-238 -28 0
-239 -29 0
-240 -30 0
-499 -28 0
-500 -29 0
-501 -30 0
-265 -31 0
-266 -32 0
-267 -33 0
-424 -31 0
-425 -32 0
-426 -33 0
-457 -31 0
-458 -32 0
-459 -33 0
-85 -34 0
-86 -35 0
-87 -36 0
-214 -34 0
-215 -35 0
-216 -36 0
-238 -34 0
-239 -35 0
-240 -36 0
-241 -34 0
-242 -35 0
-243 -36 0
-244 -34 0
-245 -35 0
-246 -36 0
-55 -37 0
-56 -38 0
-57 -39 0
-196 -37 0
-197 -38 0
-198 -39 0
-241 -37 0
-242 -38 0
-243 -39 0
-397 -37 0
-398 -38 0
-399 -39 0
-427 -37 0
-428 -38 0
-429 -39 0
-166 -40 0
-167 -41 0
-168 -42 0
-340 -40 0
-341 -41 0
-342 -42 0
-109 -43 0
-110 -44 0
-111 -45 0
-214 -43 0
-215 -44 0
-216 -45 0
-289 -43 0
-290 -44 0
-291 -45 0
-124 -49 0
-125 -50 0
-126 -51 0
-283 -49 0
-284 -50 0
-285 -51 0
-361 -49 0
-362 -50 0
-363 -51 0
-430 -49 0
-431 -50 0
-432 -51 0
-457 -49 0
-458 -50 0
-459 -51 0
-202 -52 0
-203 -53 0
-204 -54 0
-208 -52 0
-209 -53 0
-210 -54 0
-430 -52 0
-431 -53 0
-432 -54 0
-436 -52 0
-437 -53 0
-438 -54 0
-454 -52 0
-455 -53 0
-456 -54 0
-223 -55 0
-224 -56 0
-225 -57 0
-262 -55 0
-263 -56 0
-264 -57 0
-340 -55 0
-341 -56 0
-342 -57 0
-355 -55 0
-356 -56 0
-357 -57 0
-433 -55 0
-434 -56 0
-435 -57 0
-454 -55 0
-455 -56 0
-456 -57 0
-178 -58 0
-179 -59 0
-180 -60 0
-295 -58 0
-296 -59 0
-297 -60 0
-331 -58 0
-332 -59 0
-333 -60 0
-445 -58 0
-446 -59 0
-447 -60 0
-457 -58 0
-458 -59 0
-459 -60 0
-478 -58 0
-479 -59 0
-480 -60 0
-511 -58 0
-512 -59 0
-513 -60 0
-70 -61 0
-71 -62 0
-72 -63 0
-280 -61 0
-281 -62 0
-282 -63 0
-292 -61 0
-293 -62 0
-294 -63 0
-295 -61 0
-296 -62 0
-297 -63 0
-412 -61 0
-413 -62 0
-414 -63 0
-469 -61 0
-470 -62 0
-471 -63 0
-247 -64 0
-248 -65 0
-249 -66 0
-274 -64 0
-275 -65 0
-276 -66 0
-73 -67 0
-74 -68 0
-75 -69 0
-193 -67 0
-194 -68 0
-195 -69 0
-268 -70 0
-269 -71 0
-270 -72 0
-271 -70 0
-272 -71 0
-273 -72 0
-394 -70 0
-395 -71 0
-396 -72 0
-448 -70 0
-449 -71 0
-450 -72 0
-499 -70 0
-500 -71 0
-501 -72 0
-172 -73 0
-173 -74 0
-174 -75 0
-253 -73 0
-254 -74 0
-255 -75 0
-328 -73 0
-329 -74 0
-330 -75 0
-472 -73 0
-473 -74 0
-474 -75 0
-508 -73 0
-509 -74 0
-510 -75 0
-208 -76 0
-209 -77 0
-210 -78 0
-247 -76 0
-248 -77 0
-249 -78 0
-313 -76 0
-314 -77 0
-315 -78 0
-400 -76 0
-401 -77 0
-402 -78 0
-487 -76 0
-488 -77 0
-489 -78 0
-496 -76 0
-497 -77 0
-498 -78 0
-355 -79 0
-356 -80 0
-357 -81 0
-478 -79 0
-479 -80 0
-480 -81 0
-112 -82 0
-113 -83 0
-114 -84 0
-190 -82 0
-191 -83 0
-192 -84 0
-226 -82 0
-227 -83 0
-228 -84 0
-235 -82 0
-236 -83 0
-237 -84 0
-238 -82 0
-239 -83 0
-240 -84 0
-307 -82 0
-308 -83 0
-309 -84 0
-223 -85 0
-224 -86 0
-225 -87 0
-382 -85 0
-383 -86 0
-384 -87 0
-385 -85 0
-386 -86 0
-387 -87 0
-142 -88 0
-143 -89 0
-144 -90 0
-364 -88 0
-365 -89 0
-366 -90 0
-409 -88 0
-410 -89 0
-411 -90 0
-502 -88 0
-503 -89 0
-504 -90 0
-103 -91 0
-104 -92 0
-105 -93 0
-181 -91 0
-182 -92 0
-183 -93 0
-256 -91 0
-257 -92 0
-258 -93 0
-391 -91 0
-392 -92 0
-393 -93 0
-409 -91 0
-410 -92 0
-411 -93 0
-427 -91 0
-428 -92 0
-429 -93 0
-505 -91 0
-506 -92 0
-507 -93 0
-442 -94 0
-443 -95 0
-444 -96 0
-502 -94 0
-503 -95 0
-504 -96 0
-202 -97 0
-203 -98 0
-204 -99 0
-217 -97 0
-218 -98 0
-219 -99 0
-280 -97 0
-281 -98 0
-282 -99 0
-340 -97 0
-341 -98 0
-342 -99 0
-373 -97 0
-374 -98 0
-375 -99 0
-385 -97 0
-386 -98 0
-387 -99 0
-430 -97 0
-431 -98 0
-432 -99 0
-358 -100 0
-359 -101 0
-360 -102 0
-430 -100 0
-431 -101 0
-432 -102 0
-112 -103 0
-113 -104 0
-114 -105 0
-493 -103 0
-494 -104 0
-495 -105 0
-121 -106 0
-122 -107 0
-123 -108 0
-253 -106 0
-254 -107 0
-255 -108 0
-295 -106 0
-296 -107 0
-297 -108 0
-331 -106 0
-332 -107 0
-333 -108 0
-391 -106 0
-392 -107 0
-393 -108 0
-406 -106 0
-407 -107 0
-408 -108 0
-142 -109 0
-143 -110 0
-144 -111 0
-301 -109 0
-302 -110 0
-303 -111 0
-226 -112 0
-227 -113 0
-228 -114 0
-235 -112 0
-236 -113 0
-237 -114 0
-511 -112 0
-512 -113 0
-513 -114 0
-205 -115 0
-206 -116 0
-207 -117 0
-238 -115 0
-239 -116 0
-240 -117 0
-298 -115 0
-299 -116 0
-300 -117 0
-400 -115 0
-401 -116 0
-402 -117 0
-472 -115 0
-473 -116 0
-474 -117 0
-316 -118 0
-317 -119 0
-318 -120 0
-361 -118 0
-362 -119 0
-363 -120 0
-427 -118 0
-428 -119 0
-429 -120 0
-151 -121 0
-152 -122 0
-153 -123 0
-166 -121 0
-167 -122 0
-168 -123 0
-205 -121 0
-206 -122 0
-207 -123 0
-295 -121 0
-296 -122 0
-297 -123 0
-340 -121 0
-341 -122 0
-342 -123 0
-145 -124 0
-146 -125 0
-147 -126 0
-148 -124 0
-149 -125 0
-150 -126 0
-226 -124 0
-227 -125 0
-228 -126 0
-259 -124 0
-260 -125 0
-261 -126 0
-394 -124 0
-395 -125 0
-396 -126 0
-400 -124 0
-401 -125 0
-402 -126 0
-520 -124 0
-521 -125 0
-522 -126 0
-268 -127 0
-269 -128 0
-270 -129 0
-313 -127 0
-314 -128 0
-315 -129 0
-376 -127 0
-377 -128 0
-378 -129 0
-481 -127 0
-482 -128 0
-483 -129 0
-235 -130 0
-236 -131 0
-237 -132 0
-301 -130 0
-302 -131 0
-303 -132 0
-397 -130 0
-398 -131 0
-399 -132 0
-487 -130 0
-488 -131 0
-489 -132 0
-151 -136 0
-152 -137 0
-153 -138 0
-220 -136 0
-221 -137 0
-222 -138 0
-271 -136 0
-272 -137 0
-273 -138 0
-331 -136 0
-332 -137 0
-333 -138 0
-361 -136 0
-362 -137 0
-363 -138 0
-307 -142 0
-308 -143 0
-309 -144 0
-241 -145 0
-242 -146 0
-243 -147 0
-271 -145 0
-272 -146 0
-273 -147 0
-301 -145 0
-302 -146 0
-303 -147 0
-379 -145 0
-380 -146 0
-381 -147 0
-343 -148 0
-344 -149 0
-345 -150 0
-445 -148 0
-446 -149 0
-447 -150 0
-463 -148 0
-464 -149 0
-465 -150 0
-490 -148 0
-491 -149 0
-492 -150 0
-196 -151 0
-197 -152 0
-198 -153 0
-286 -151 0
-287 -152 0
-288 -153 0
-436 -151 0
-437 -152 0
-438 -153 0
-427 -154 0
-428 -155 0
-429 -156 0
-472 -157 0
-473 -158 0
-474 -159 0
-286 -160 0
-287 -161 0
-288 -162 0
-226 -163 0
-227 -164 0
-228 -165 0
-268 -163 0
-269 -164 0
-270 -165 0
-328 -163 0
-329 -164 0
-330 -165 0
-481 -163 0
-482 -164 0
-483 -165 0
-496 -163 0
-497 -164 0
-498 -165 0
-214 -166 0
-215 -167 0
-216 -168 0
-469 -166 0
-470 -167 0
-471 -168 0
-484 -166 0
-485 -167 0
-486 -168 0
-490 -166 0
-491 -167 0
-492 -168 0
-253 -169 0
-254 -170 0
-255 -171 0
-400 -169 0
-401 -170 0
-402 -171 0
-475 -169 0
-476 -170 0
-477 -171 0
-190 -172 0
-191 -173 0
-192 -174 0
-193 -172 0
-194 -173 0
-195 -174 0
-256 -172 0
-257 -173 0
-258 -174 0
-346 -172 0
-347 -173 0
-348 -174 0
-382 -172 0
-383 -173 0
-384 -174 0
-196 -175 0
-197 -176 0
-198 -177 0
-262 -175 0
-263 -176 0
-264 -177 0
-286 -175 0
-287 -176 0
-288 -177 0
-412 -175 0
-413 -176 0
-414 -177 0
-415 -175 0
-416 -176 0
-417 -177 0
-463 -175 0
-464 -176 0
-465 -177 0
-517 -175 0
-518 -176 0
-519 -177 0
-472 -178 0
-473 -179 0
-474 -180 0
-199 -181 0
-200 -182 0
-201 -183 0
-310 -181 0
-311 -182 0
-312 -183 0
-370 -181 0
-371 -182 0
-372 -183 0
-412 -181 0
-413 -182 0
-414 -183 0
-442 -181 0
-443 -182 0
-444 -183 0
-217 -184 0
-218 -185 0
-219 -186 0
-295 -184 0
-296 -185 0
-297 -186 0
-310 -184 0
-311 -185 0
-312 -186 0
-325 -184 0
-326 -185 0
-327 -186 0
-367 -184 0
-368 -185 0
-369 -186 0
-460 -184 0
-461 -185 0
-462 -186 0
-508 -184 0
-509 -185 0
-510 -186 0
-277 -187 0
-278 -188 0
-279 -189 0
-502 -187 0
-503 -188 0
-504 -189 0
-352 -190 0
-353 -191 0
-354 -192 0
-406 -190 0
-407 -191 0
-408 -192 0
-439 -190 0
-440 -191 0
-441 -192 0
-466 -190 0
-467 -191 0
-468 -192 0
-481 -190 0
-482 -191 0
-483 -192 0
-508 -193 0
-509 -194 0
-510 -195 0
-199 -196 0
-200 -197 0
-201 -198 0
-286 -199 0
-287 -200 0
-288 -201 0
-298 -199 0
-299 -200 0
-300 -201 0
-319 -199 0
-320 -200 0
-321 -201 0
-340 -199 0
-341 -200 0
-342 -201 0
-223 -202 0
-224 -203 0
-225 -204 0
-229 -202 0
-230 -203 0
-231 -204 0
-256 -205 0
-257 -206 0
-258 -207 0
-283 -205 0
-284 -206 0
-285 -207 0
-316 -205 0
-317 -206 0
-318 -207 0
-349 -205 0
-350 -206 0
-351 -207 0
-214 -208 0
-215 -209 0
-216 -210 0
-502 -208 0
-503 -209 0
-504 -210 0
-508 -208 0
-509 -209 0
-510 -210 0
-310 -211 0
-311 -212 0
-312 -213 0
-463 -211 0
-464 -212 0
-465 -213 0
-490 -211 0
-491 -212 0
-492 -213 0
-430 -214 0
-431 -215 0
-432 -216 0
-523 -214 0
-524 -215 0
-525 -216 0
-325 -217 0
-326 -218 0
-327 -219 0
-508 -217 0
-509 -218 0
-510 -219 0
-325 -220 0
-326 -221 0
-327 -222 0
-514 -220 0
-515 -221 0
-516 -222 0
-319 -223 0
-320 -224 0
-321 -225 0
-511 -223 0
-512 -224 0
-513 -225 0
-325 -226 0
-326 -227 0
-327 -228 0
-364 -226 0
-365 -227 0
-366 -228 0
-463 -226 0
-464 -227 0
-465 -228 0
-475 -232 0
-476 -233 0
-477 -234 0
-487 -232 0
-488 -233 0
-489 -234 0
-430 -235 0
-431 -236 0
-432 -237 0
-487 -235 0
-488 -236 0
-489 -237 0
-340 -238 0
-341 -239 0
-342 -240 0
-400 -238 0
-401 -239 0
-402 -240 0
-442 -238 0
-443 -239 0
-444 -240 0
-490 -238 0
-491 -239 0
-492 -240 0
-277 -241 0
-278 -242 0
-279 -243 0
-358 -241 0
-359 -242 0
-360 -243 0
-466 -241 0
-467 -242 0
-468 -243 0
-514 -241 0
-515 -242 0
-516 -243 0
-337 -244 0
-338 -245 0
-339 -246 0
-394 -244 0
-395 -245 0
-396 -246 0
-325 -247 0
-326 -248 0
-327 -249 0
-388 -247 0
-389 -248 0
-390 -249 0
-262 -250 0
-263 -251 0
-264 -252 0
-298 -250 0
-299 -251 0
-300 -252 0
-319 -250 0
-320 -251 0
-321 -252 0
-331 -250 0
-332 -251 0
-333 -252 0
-451 -250 0
-452 -251 0
-453 -252 0
-469 -250 0
-470 -251 0
-471 -252 0
-289 -253 0
-290 -254 0
-291 -255 0
-433 -253 0
-434 -254 0
-435 -255 0
-280 -256 0
-281 -257 0
-282 -258 0
-433 -256 0
-434 -257 0
-435 -258 0
-502 -256 0
-503 -257 0
-504 -258 0
-289 -259 0
-290 -260 0
-291 -261 0
-454 -259 0
-455 -260 0
-456 -261 0
-505 -259 0
-506 -260 0
-507 -261 0
-271 -262 0
-272 -263 0
-273 -264 0
-313 -265 0
-314 -266 0
-315 -267 0
-466 -265 0
-467 -266 0
-468 -267 0
-478 -268 0
-479 -269 0
-480 -270 0
-313 -271 0
-314 -272 0
-315 -273 0
-319 -271 0
-320 -272 0
-321 -273 0
-388 -274 0
-389 -275 0
-390 -276 0
-409 -274 0
-410 -275 0
-411 -276 0
-448 -274 0
-449 -275 0
-450 -276 0
-307 -277 0
-308 -278 0
-309 -279 0
-328 -277 0
-329 -278 0
-330 -279 0
-445 -280 0
-446 -281 0
-447 -282 0
-517 -280 0
-518 -281 0
-519 -282 0
-331 -283 0
-332 -284 0
-333 -285 0
-472 -283 0
-473 -284 0
-474 -285 0
-403 -286 0
-404 -287 0
-405 -288 0
-472 -286 0
-473 -287 0
-474 -288 0
-352 -292 0
-353 -293 0
-354 -294 0
-427 -292 0
-428 -293 0
-429 -294 0
-442 -292 0
-443 -293 0
-444 -294 0
-322 -295 0
-323 -296 0
-324 -297 0
-358 -298 0
-359 -299 0
-360 -300 0
-433 -298 0
-434 -299 0
-435 -300 0
-442 -298 0
-443 -299 0
-444 -300 0
-385 -301 0
-386 -302 0
-387 -303 0
-487 -301 0
-488 -302 0
-489 -303 0
-307 -304 0
-308 -305 0
-309 -306 0
-433 -304 0
-434 -305 0
-435 -306 0
-403 -307 0
-404 -308 0
-405 -309 0
-484 -307 0
-485 -308 0
-486 -309 0
-418 -310 0
-419 -311 0
-420 -312 0
-520 -310 0
-521 -311 0
-522 -312 0
-337 -313 0
-338 -314 0
-339 -315 0
-352 -313 0
-353 -314 0
-354 -315 0
-391 -316 0
-392 -317 0
-393 -318 0
-466 -316 0
-467 -317 0
-468 -318 0
-469 -316 0
-470 -317 0
-471 -318 0
-379 -319 0
-380 -320 0
-381 -321 0
-385 -322 0
-386 -323 0
-387 -324 0
-433 -322 0
-434 -323 0
-435 -324 0
-502 -322 0
-503 -323 0
-504 -324 0
-355 -325 0
-356 -326 0
-357 -327 0
-424 -328 0
-425 -329 0
-426 -330 0
-475 -331 0
-476 -332 0
-477 -333 0
-397 -334 0
-398 -335 0
-399 -336 0
-463 -334 0
-464 -335 0
-465 -336 0
-478 -337 0
-479 -338 0
-480 -339 0
-433 -340 0
-434 -341 0
-435 -342 0
-475 -343 0
-476 -344 0
-477 -345 0
-505 -343 0
-506 -344 0
-507 -345 0
-397 -346 0
-398 -347 0
-399 -348 0
-472 -346 0
-473 -347 0
-474 -348 0
-517 -346 0
-518 -347 0
-519 -348 0
-370 -349 0
-371 -350 0
-372 -351 0
-364 -352 0
-365 -353 0
-366 -354 0
-424 -352 0
-425 -353 0
-426 -354 0
-445 -352 0
-446 -353 0
-447 -354 0
-505 -352 0
-506 -353 0
-507 -354 0
-358 -355 0
-359 -356 0
-360 -357 0
-394 -355 0
-395 -356 0
-396 -357 0
-475 -355 0
-476 -356 0
-477 -357 0
-370 -358 0
-371 -359 0
-372 -360 0
-454 -361 0
-455 -362 0
-456 -363 0
-508 -364 0
-509 -365 0
-510 -366 0
-382 -367 0
-383 -368 0
-384 -369 0
-376 -370 0
-377 -371 0
-378 -372 0
-391 -370 0
-392 -371 0
-393 -372 0
-397 -370 0
-398 -371 0
-399 -372 0
-412 -370 0
-413 -371 0
-414 -372 0
-427 -373 0
-428 -374 0
-429 -375 0
-499 -373 0
-500 -374 0
-501 -375 0
-418 -376 0
-419 -377 0
-420 -378 0
-502 -376 0
-503 -377 0
-504 -378 0
-523 -376 0
-524 -377 0
-525 -378 0
-448 -379 0
-449 -380 0
-450 -381 0
-451 -382 0
-452 -383 0
-453 -384 0
-511 -382 0
-512 -383 0
-513 -384 0
-487 -388 0
-488 -389 0
-489 -390 0
-505 -388 0
-506 -389 0
-507 -390 0
-439 -391 0
-440 -392 0
-441 -393 0
-490 -391 0
-491 -392 0
-492 -393 0
-415 -394 0
-416 -395 0
-417 -396 0
-505 -394 0
-506 -395 0
-507 -396 0
-406 -397 0
-407 -398 0
-408 -399 0
-499 -397 0
-500 -398 0
-501 -399 0
-454 -400 0
-455 -401 0
-456 -402 0
-493 -406 0
-494 -407 0
-495 -408 0
-421 -409 0
-422 -410 0
-423 -411 0
-451 -409 0
-452 -410 0
-453 -411 0
-460 -409 0
-461 -410 0
-462 -411 0
-502 -412 0
-503 -413 0
-504 -414 0
-511 -412 0
-512 -413 0
-513 -414 0
-469 -418 0
-470 -419 0
-471 -420 0
-487 -427 0
-488 -428 0
-489 -429 0
-484 -433 0
-485 -434 0
-486 -435 0
-445 -436 0
-446 -437 0
-447 -438 0
-505 -445 0
-506 -446 0
-507 -447 0
-451 -448 0
-452 -449 0
-453 -450 0
-457 -454 0
-458 -455 0
-459 -456 0
-478 -457 0
-479 -458 0
-480 -459 0
-487 -469 0
-488 -470 0
-489 -471 0
-520 -472 0
-521 -473 0
-522 -474 0
-478 -475 0
-479 -476 0
-480 -477 0
-517 -475 0
-518 -476 0
-519 -477 0
-520 -478 0
-521 -479 0
-522 -480 0
-520 -481 0
-521 -482 0
-522 -483 0
-520 -514 0
-521 -515 0
-522 -516 0
